120 150
1 38
2 100 3 4 6 8 9 11 13 14 15 17 21 22 24 26 29 30 31 34 39 40 42 43 45 47 48 49 50 53 54 55 56 57 58 59 60 63 64 65 66 67 68 69 70 72 73 76 77 78 79 80 81 82 86 87 88 89 90 91 92 95 96 97 98 99 101 103 104 106 107 108 110 112 113 114 116 117 119 120
3 60 4 5 6 8 9 10 11 13 14 15 17 20 21 22 23 24 26 27 28 29 30 31 34 37 38 39 40 42 43 45 47 48 49 50 52 53 54 55 56 57 58 59 60 63 64 65 66 67 68 69 70 71 72 73 76 77 78 79 80 81 82 84 86 87 88 89 90 91 92 93 94 95 96 97 98 99 100 101 103 104 106 107 108 110 112 113 114 115 116 117 119 120
4 42 6 8 9 13 15 17 21 29 30 31 40 42 45 47 48 49 53 54 55 57 58 59 63 65 66 68 69 70 73 76 77 78 80 81 92 95 96 97 99 101 104 106 107 108 110 114 116 119 120
5 20 8 13 17 49 55 59 63 66 78 81 95 119
6 69 8 9 11 13 14 15 17 21 24 26 29 30 31 39 40 42 43 45 47 48 49 53 54 55 56 57 58 59 63 64 65 66 68 69 70 72 73 76 77 78 79 80 81 86 88 89 92 95 96 97 99 101 104 106 107 108 110 114 116 117 119 120
7 24
8 23 9 11 13 14 15 17 21 22 23 24 26 27 28 29 30 31 34 37 38 39 40 42 43 45 47 48 49 50 52 53 54 55 56 57 58 59 60 63 64 65 66 67 68 69 70 72 73 76 77 78 79 80 81 82 84 86 87 88 89 90 91 92 93 94 95 96 97 98 99 101 103 104 106 107 108 110 112 113 114 116 117 119 120
9 92 11 13 14 15 17 21 22 24 26 29 30 31 34 39 40 42 43 45 47 48 49 50 53 54 55 56 57 58 59 60 63 64 65 66 67 68 69 70 72 73 76 77 78 79 80 81 82 86 87 88 89 90 91 92 95 96 97 98 99 101 103 104 106 107 108 110 112 113 114 116 117 119 120
10 32 17 55 59 66 95 119
11 84 13 15 17 21 31 40 42 45 47 49 54 55 59 63 66 69 70 73 76 77 78 80 81 92 95 96 97 99 101 104 106 107 108 110 114 116 119
12 36
13 65 14 15 17 21 22 23 24 26 27 28 29 30 31 34 37 38 39 40 42 43 45 47 48 49 50 52 53 54 55 56 57 58 59 60 63 64 65 66 67 68 69 70 72 73 76 77 78 79 80 81 82 84 86 87 88 89 90 91 92 94 95 96 97 98 99 101 103 104 106 107 108 110 112 113 114 116 117 119 120
14 84 15 17 21 24 29 30 31 40 42 45 47 48 49 53 54 55 57 58 59 63 65 66 68 69 70 73 76 77 78 80 81 89 92 95 96 97 99 101 104 106 107 108 110 114 116 117 119 120
15 34 17 21 24 26 29 30 31 39 40 42 43 45 47 48 49 53 54 55 56 57 58 59 60 63 64 65 66 68 69 70 72 73 76 77 78 79 80 81 82 86 88 89 92 95 96 97 98 99 101 103 104 106 107 108 110 114 116 117 119 120
16 68
17 64 20 21 22 23 24 26 27 28 29 30 31 34 37 38 39 40 42 43 45 46 47 48 49 50 52 53 54 55 56 57 58 59 60 63 64 65 66 67 68 69 70 71 72 73 76 77 78 79 80 81 82 84 85 86 87 88 89 90 91 92 93 94 95 96 97 98 99 100 101 103 104 106 107 108 110 112 113 114 115 116 117 118 119 120
18 33
19 69
20 27 55 59 66 95 119
21 47 24 26 29 30 31 34 39 40 42 43 45 47 48 49 53 54 55 56 57 58 59 60 63 64 65 66 68 69 70 72 73 76 77 78 79 80 81 82 86 88 89 90 91 92 95 96 97 98 99 101 103 104 106 107 108 110 112 114 116 117 119 120
22 21 47 49 55 59 63 66 69 70 77 78 81 92 95 96 106 108 116 119
23 85 49 55 59 63 66 69 77 78 81 95 119
24 88 29 30 31 40 42 45 47 48 49 53 54 55 57 58 59 63 65 66 68 69 70 73 76 77 78 80 81 89 92 95 96 97 99 101 104 106 107 108 110 114 116 117 119 120
25 59
26 61 29 31 40 42 45 47 48 49 53 54 55 57 58 59 63 65 66 68 69 70 73 76 77 78 80 81 92 95 96 97 99 101 104 106 107 108 110 114 116 119
27 50 49 55 59 63 66 78 81 95 119
28 53 49 55 59 63 66 69 77 78 81 95 119
29 37 30 31 40 42 45 47 48 49 53 54 55 57 58 59 63 65 66 68 69 70 72 73 76 77 78 79 80 81 88 89 92 95 96 97 99 101 104 106 107 108 110 114 116 117 119 120
30 75 31 40 42 45 47 48 49 53 54 55 57 58 59 63 65 66 68 69 70 73 76 77 78 80 81 88 89 92 95 96 97 99 101 104 106 107 108 110 114 116 117 119 120
31 64 34 39 40 42 43 45 47 48 49 53 54 55 56 57 58 59 60 63 64 65 66 68 69 70 72 73 76 77 78 79 80 81 82 86 88 89 90 91 92 95 96 97 98 99 101 103 104 106 107 108 110 112 114 116 117 119 120
32 84
33 74
34 57 40 42 47 49 54 55 59 63 66 69 70 73 77 78 81 92 95 96 99 101 104 106 107 108 110 116 119
35 83
36 28
37 31 49 55 59 63 66 78 81 95 119
38 97 49 55 59 63 66 78 81 95 119
39 61 40 42 45 47 49 54 55 57 59 63 65 66 69 70 73 76 77 78 80 81 92 95 96 97 99 101 104 106 107 108 110 114 116 119
40 36 42 43 45 47 48 49 53 54 55 56 57 58 59 60 63 64 65 66 68 69 70 72 73 76 77 78 79 80 81 82 86 88 89 90 91 92 95 96 97 98 99 101 103 104 106 107 108 110 112 114 116 117 119 120
41 46
42 37 43 45 47 48 49 53 54 55 56 57 58 59 60 63 64 65 66 68 69 70 72 73 76 77 78 79 80 81 82 86 88 89 90 91 92 95 96 97 98 99 101 103 104 106 107 108 110 112 114 116 117 119 120
43 96 45 47 49 54 55 57 59 63 65 66 68 69 70 73 76 77 78 80 81 92 95 96 97 99 101 104 106 107 108 110 114 116 119
44 80
45 53 47 48 49 53 54 55 56 57 58 59 63 64 65 66 68 69 70 72 73 76 77 78 79 80 81 82 86 88 89 92 95 96 97 98 99 101 104 106 107 108 110 114 116 117 119 120
46 51
47 68 48 49 50 53 54 55 56 57 58 59 60 63 64 65 66 67 68 69 70 72 73 76 77 78 79 80 81 82 86 87 88 89 90 91 92 95 96 97 98 99 101 103 104 106 107 108 110 112 113 114 116 117 119 120
48 90 49 53 54 55 57 58 59 63 65 66 68 69 70 72 73 76 77 78 79 80 81 88 89 92 95 96 97 99 101 104 106 107 108 110 114 116 117 119 120
49 64 50 52 53 54 55 56 57 58 59 60 63 64 65 66 67 68 69 70 72 73 76 77 78 79 80 81 82 84 86 87 88 89 90 91 92 94 95 96 97 98 99 101 103 104 106 107 108 110 112 113 114 116 117 119 120
50 81 55 59 63 66 69 70 77 78 81 92 95 96 106 116 119
51 66
52 67 55 59 63 66 69 78 81 95 119
53 80 54 55 57 58 59 63 65 66 68 69 70 72 73 76 77 78 80 81 88 89 92 95 96 97 99 101 104 106 107 108 110 114 116 117 119 120
54 37 55 56 57 58 59 60 63 64 65 66 68 69 70 72 73 76 77 78 79 80 81 82 86 88 89 90 91 92 95 96 97 98 99 101 103 104 106 107 108 110 112 114 116 117 119 120
55 92 56 57 58 59 60 63 64 65 66 67 68 69 70 72 73 76 77 78 79 80 81 82 84 86 87 88 89 90 91 92 93 94 95 96 97 98 99 100 101 103 104 106 107 108 110 112 113 114 116 117 119 120
56 67 57 59 63 65 66 68 69 70 73 76 77 78 80 81 92 95 96 97 99 101 104 106 107 108 110 114 116 119
57 64 58 59 63 64 65 66 68 69 70 72 73 76 77 78 79 80 81 88 89 92 95 96 97 99 101 104 106 107 108 110 114 116 117 119 120
58 31 59 63 65 66 68 69 70 72 73 76 77 78 80 81 88 89 92 95 96 97 99 101 104 106 107 108 110 114 116 117 119 120
59 94 60 63 64 65 66 67 68 69 70 71 72 73 76 77 78 79 80 81 82 84 86 87 88 89 90 91 92 93 94 95 96 97 98 99 100 101 103 104 106 107 108 110 112 113 114 115 116 117 119 120
60 45 63 66 69 70 73 77 78 81 92 95 96 99 101 104 106 107 108 110 116 119
61 80
62 28
63 76 64 65 66 67 68 69 70 72 73 76 77 78 79 80 81 82 84 86 87 88 89 90 91 92 94 95 96 97 98 99 101 103 104 106 107 108 110 112 113 114 116 117 119 120
64 29 65 66 68 69 70 73 76 77 78 80 81 92 95 96 97 99 101 104 106 107 108 110 114 116 119
65 64 66 68 69 70 72 73 76 77 78 79 80 81 88 89 92 95 96 97 99 101 104 106 107 108 110 114 116 117 119 120
66 38 67 68 69 70 71 72 73 76 77 78 79 80 81 82 84 86 87 88 89 90 91 92 93 94 95 96 97 98 99 100 101 103 104 106 107 108 110 112 113 114 115 116 117 119 120
67 48 69 70 77 78 81 92 95 96 106 116 119
68 40 69 70 72 73 76 77 78 79 80 81 88 89 92 95 96 97 99 101 104 106 107 108 110 114 116 117 119 120
69 29 70 72 73 76 77 78 79 80 81 82 86 87 88 89 90 91 92 95 96 97 98 99 101 103 104 106 107 108 110 112 113 114 116 117 119 120
70 44 72 73 76 77 78 79 80 81 82 86 87 88 89 90 91 92 95 96 97 98 99 101 103 104 106 107 108 110 112 113 114 116 117 119 120
71 81 95 119
72 35 73 76 77 78 80 81 92 95 96 97 99 101 104 106 107 108 110 114 116 119
73 51 76 77 78 79 80 81 82 86 88 89 91 92 95 96 97 98 99 101 103 104 106 107 108 110 114 116 117 119 120
74 48
75 67
76 24 77 78 79 80 81 86 88 89 92 95 96 97 99 101 104 106 107 108 110 114 116 117 119 120
77 46 78 79 80 81 82 86 87 88 89 90 91 92 95 96 97 98 99 101 103 104 106 107 108 110 112 113 114 116 117 119 120
78 38 79 80 81 82 84 86 87 88 89 90 91 92 94 95 96 97 98 99 101 103 104 106 107 108 110 112 113 114 116 117 119 120
79 76 80 81 92 95 96 97 99 101 104 106 107 108 110 114 116 119
80 22 81 82 86 88 89 92 95 96 97 98 99 101 104 106 107 108 110 114 116 117 119 120
81 30 82 84 86 87 88 89 90 91 92 93 94 95 96 97 98 99 101 103 104 106 107 108 110 112 113 114 116 117 119 120
82 67 92 95 96 97 99 101 104 106 107 108 110 116 119
83 45
84 41 95 119
85 29
86 41 92 95 96 97 99 101 104 106 107 108 110 114 116 119
87 79 95 96 106 116 119
88 21 92 95 96 97 99 101 104 106 107 108 110 114 116 119 120
89 25 92 95 96 97 99 101 104 106 107 108 110 114 116 119 120
90 90 92 95 96 99 104 106 107 108 110 116 119
91 62 92 95 96 99 104 106 107 108 110 116 119
92 34 95 96 97 98 99 101 103 104 106 107 108 110 112 113 114 116 117 119 120
93 73 95 119
94 50 95 119
95 79 96 97 98 99 100 101 103 104 106 107 108 110 112 113 114 115 116 117 119 120
96 66 97 98 99 101 103 104 106 107 108 110 112 113 114 116 117 119 120
97 59 98 99 101 104 106 107 108 110 114 116 117 119 120
98 42 99 101 104 106 107 108 110 114 116 119
99 90 101 103 104 106 107 108 110 112 114 116 117 119 120
100 79 119
101 70 103 104 106 107 108 110 114 116 117 119 120
102 66
103 80 104 106 107 108 110 116 119
104 35 106 107 108 110 114 116 117 119 120
105 62
106 98 107 108 110 112 113 114 116 117 119 120
107 97 108 110 112 114 116 117 119 120
108 37 110 112 114 116 117 119 120
109 32
110 75 112 114 116 117 119 120
111 91
112 91 116 119
113 48 116 119
114 26 116 117 119 120
115 23 119
116 32 117 119 120
117 100 119 120
118 46
119 29 120
120 26
